data/solutions/recovery/wellformed/moderate/flexible/wellformed_moderate_instance64/10.sol
Elapsed time: 13.55
Upper bound: 4861.0
Planning weighted value: 129060.0
C[0]=4861.0
C[1]=4861.0
C[2]=4861.0
C[3]=4861.0
C[4]=0.0
y[0]=3
y[1]=1
y[2]=0
y[3]=0
y[4]=1
y[5]=3
y[6]=2
y[7]=0
y[8]=2
y[9]=1
y[10]=0
y[11]=0
y[12]=1
y[13]=0
y[14]=2
y[15]=2
y[16]=3
y[17]=2
y[18]=2
y[19]=0
y[20]=0
y[21]=1
y[22]=3
y[23]=1
y[24]=2
y[25]=1
y[26]=2
y[27]=3
y[28]=1
y[29]=3
y[30]=3
y[31]=0
y[32]=3
y[33]=3
y[34]=1
y[35]=0
y[36]=3
y[37]=3
y[38]=1
y[39]=0
y[40]=3
