data/solutions/recovery/wellformed/moderate/flexible/wellformed_moderate_instance64/10.log

Log started (V12.6.3.0) Fri Apr 20 19:57:42 2018

New value for default parallel thread count: 1

Problem '/tmp/tmpSAGQyy.pyomo.lp' read.
Read time = 0.00 sec. (0.08 ticks)

Problem name         : /tmp/tmpSAGQyy.pyomo.lp
Objective sense      : Minimize
Variables            :     212  [Nneg: 1,  Binary: 205,  General Integer: 6]
Objective nonzeros   :       1
Linear constraints   :      94  [Less: 46,  Equal: 48]
  Nonzeros           :    5695
  RHS nonzeros       :      83

Variables            : Min LB: 0.000000         Max UB: 1.000000       
Objective nonzeros   : Min   : 1.000000         Max   : 1.000000       
Linear constraints   :
  Nonzeros           : Min   : 1.000000         Max   : 1963.000       
  RHS nonzeros       : Min   : 1.000000         Max   : 5.000000       
Tried aggregator 2 times.
MIP Presolve eliminated 44 rows and 55 columns.
Aggregator did 8 substitutions.
Reduced MIP has 42 rows, 149 columns, and 384 nonzeros.
Reduced MIP has 148 binaries, 1 generals, 0 SOSs, and 0 indicators.
Presolve time = 0.00 sec. (1.42 ticks)
Found incumbent of value 19444.000000 after 0.00 sec. (1.72 ticks)
Probing time = 0.00 sec. (0.12 ticks)
Cover probing fixed 0 vars, tightened 6 bounds.
Tried aggregator 1 time.
Reduced MIP has 42 rows, 149 columns, and 384 nonzeros.
Reduced MIP has 148 binaries, 1 generals, 0 SOSs, and 0 indicators.
Presolve time = 0.00 sec. (0.27 ticks)
Probing time = 0.00 sec. (0.08 ticks)
Clique table members: 37.
MIP emphasis: balance optimality and feasibility.
MIP search method: dynamic search.
Parallel mode: none, using 1 thread.
Root relaxation solution time = 0.00 sec. (0.12 ticks)

        Nodes                                         Cuts/
   Node  Left     Objective  IInf  Best Integer    Best Bound    ItCnt     Gap

*     0+    0                        19444.0000     1963.0000            89.90%
      0     0     4861.0000     5    19444.0000     4861.0000        6   75.00%
*     0+    0                         5369.0000     4861.0000             9.46%
      0     0     4861.0000     7     5369.0000       Cuts: 5       12    9.46%
*     0+    0                         4968.0000     4861.0000             2.15%
      0     0     4861.0000     9     4968.0000       Cuts: 2       17    2.15%
*     0+    0                         4881.0000     4861.0000             0.41%
      0     2     4861.0000     9     4881.0000     4861.0000       17    0.41%
Elapsed time = 0.01 sec. (5.62 ticks, tree = 0.01 MB, solutions = 4)
*    40+   30                         4878.0000     4861.0000             0.35%
*   316   206      integral     0     4875.0000     4861.0000      734    0.29%
*   599   361      integral     0     4873.0000     4861.0000     1359    0.25%
*   982+  549                         4871.0000     4861.0000             0.21%
*  1483+  336                         4866.0000     4861.0000             0.10%
   2083   545     4861.0000     8     4866.0000     4861.0000     4329    0.10%
   2084   546     4861.0000     6     4866.0000     4861.0000     4330    0.10%
   2085   547     4861.0000     8     4866.0000     4861.0000     4333    0.10%
   2086   548     4861.0000     8     4866.0000     4861.0000     4336    0.10%
   2087   549     4861.0000     8     4866.0000     4861.0000     4337    0.10%
   2088   550     4861.0000     8     4866.0000     4861.0000     4338    0.10%
   2089   551     4861.0000     8     4866.0000     4861.0000     4339    0.10%
   2090   552     4861.0000     8     4866.0000     4861.0000     4340    0.10%
   2091   553     4861.0000     8     4866.0000     4861.0000     4341    0.10%
*  2383+  617                         4865.0000     4861.0000             0.08%
*  4883+ 1241                         4862.0000     4861.0000             0.02%
  10655  4113    infeasible           4862.0000     4861.0000    20643    0.02%
Elapsed time = 1.28 sec. (959.32 ticks, tree = 1.22 MB, solutions = 11)
  27000 11943     4861.0000     6     4862.0000     4861.0000    51719    0.02%
  27001 11944     4861.0000     5     4862.0000     4861.0000    51721    0.02%
  27002 11945     4861.0000     6     4862.0000     4861.0000    51722    0.02%
  27003 11946     4861.0000     5     4862.0000     4861.0000    51724    0.02%
  27004 11947     4861.0000     6     4862.0000     4861.0000    51725    0.02%
  27005 11948     4861.0000     6     4862.0000     4861.0000    51726    0.02%
  27006 11949     4861.0000     6     4862.0000     4861.0000    51727    0.02%
  27007 11950     4861.0000     8     4862.0000     4861.0000    51729    0.02%
  27008 11951     4861.0000     7     4862.0000     4861.0000    51731    0.02%
  27009 11950    infeasible           4862.0000     4861.0000    51741    0.02%
Elapsed time = 2.53 sec. (1913.36 ticks, tree = 3.40 MB, solutions = 11)
  46696 20649     4861.0000     5     4862.0000     4861.0000    89078    0.02%
  46697 20650     4861.0000     6     4862.0000     4861.0000    89080    0.02%
  46698 20651     4861.0000     6     4862.0000     4861.0000    89081    0.02%
  46699 20652     4861.0000     6     4862.0000     4861.0000    89082    0.02%
  46700 20653     4861.0000     6     4862.0000     4861.0000    89083    0.02%
  46701 20654     4861.0000     6     4862.0000     4861.0000    89084    0.02%
  46702 20655     4861.0000     6     4862.0000     4861.0000    89086    0.02%
  46703 20656     4861.0000     6     4862.0000     4861.0000    89087    0.02%
  46704 20657     4861.0000     6     4862.0000     4861.0000    89088    0.02%
  46705 20658     4861.0000     6     4862.0000     4861.0000    89089    0.02%
Elapsed time = 3.73 sec. (2867.29 ticks, tree = 6.03 MB, solutions = 11)
  65445 28980     4861.0000     8     4862.0000     4861.0000   124553    0.02%
  65446 28981     4861.0000     8     4862.0000     4861.0000   124554    0.02%
  65447 28980    infeasible           4862.0000     4861.0000   124556    0.02%
  65448 28979    infeasible           4862.0000     4861.0000   124558    0.02%
  65449 28978    infeasible           4862.0000     4861.0000   124561    0.02%
  65450 28977    infeasible           4862.0000     4861.0000   124564    0.02%
  65451 28976    infeasible           4862.0000     4861.0000   124565    0.02%
  65452 28975    infeasible           4862.0000     4861.0000   124568    0.02%
  65453 28974    infeasible           4862.0000     4861.0000   124573    0.02%
  65454 28973    infeasible           4862.0000     4861.0000   124574    0.02%
Elapsed time = 4.94 sec. (3822.65 ticks, tree = 8.12 MB, solutions = 11)
  81215 31898     4861.0000     6     4862.0000     4861.0000   156854    0.02%
  81216 31899     4861.0000     8     4862.0000     4861.0000   156856    0.02%
  81217 31900     4861.0000     8     4862.0000     4861.0000   156859    0.02%
  81218 31901     4861.0000     5     4862.0000     4861.0000   156862    0.02%
  81219 31902     4861.0000     5     4862.0000     4861.0000   156863    0.02%
  81220 31903     4861.0000     8     4862.0000     4861.0000   156866    0.02%
  81221 31904     4861.0000     5     4862.0000     4861.0000   156869    0.02%
  81222 31905     4861.0000     5     4862.0000     4861.0000   156870    0.02%
  81223 31906     4861.0000     6     4862.0000     4861.0000   156872    0.02%
  81224 31907     4861.0000     7     4862.0000     4861.0000   156875    0.02%
Elapsed time = 6.15 sec. (4776.67 ticks, tree = 8.88 MB, solutions = 11)
  96259 34867     4861.0000     4     4862.0000     4861.0000   189699    0.02%
  96260 34866    infeasible           4862.0000     4861.0000   189699    0.02%
  96261 34867     4861.0000     4     4862.0000     4861.0000   189700    0.02%
  96262 34868     4861.0000     4     4862.0000     4861.0000   189701    0.02%
  96263 34869     4861.0000     4     4862.0000     4861.0000   189702    0.02%
  96264 34870     4861.0000     4     4862.0000     4861.0000   189703    0.02%
  96265 34871     4861.0000     4     4862.0000     4861.0000   189704    0.02%
  96266 34872     4861.0000     4     4862.0000     4861.0000   189705    0.02%
  96267 34873     4861.0000     4     4862.0000     4861.0000   189706    0.02%
  96268 34872    infeasible           4862.0000     4861.0000   189709    0.02%
Elapsed time = 7.41 sec. (5731.14 ticks, tree = 10.59 MB, solutions = 11)
 112655 38852     4861.0000     6     4862.0000     4861.0000   224306    0.02%
 112656 38853     4861.0000     6     4862.0000     4861.0000   224307    0.02%
 112657 38854     4861.0000     6     4862.0000     4861.0000   224308    0.02%
 112658 38855     4861.0000     6     4862.0000     4861.0000   224309    0.02%
 112659 38856     4861.0000     8     4862.0000     4861.0000   224312    0.02%
 112660 38857     4861.0000     8     4862.0000     4861.0000   224313    0.02%
 112661 38858     4861.0000     8     4862.0000     4861.0000   224315    0.02%
 112662 38859     4861.0000     8     4862.0000     4861.0000   224317    0.02%
 112663 38858    infeasible           4862.0000     4861.0000   224322    0.02%
 112664 38857    infeasible           4862.0000     4861.0000   224322    0.02%
Elapsed time = 8.64 sec. (6685.11 ticks, tree = 11.61 MB, solutions = 11)
 128508 41564    infeasible           4862.0000     4861.0000   257522    0.02%
 128509 41563    infeasible           4862.0000     4861.0000   257525    0.02%
 128510 41562    infeasible           4862.0000     4861.0000   257527    0.02%
 128511 41561    infeasible           4862.0000     4861.0000   257528    0.02%
 128512 41560    infeasible           4862.0000     4861.0000   257531    0.02%
 128513 41561     4861.0000     5     4862.0000     4861.0000   257532    0.02%
 128514 41562     4861.0000     5     4862.0000     4861.0000   257533    0.02%
 128515 41563     4861.0000     5     4862.0000     4861.0000   257534    0.02%
 128516 41564     4861.0000     5     4862.0000     4861.0000   257535    0.02%
 128517 41565     4861.0000     5     4862.0000     4861.0000   257536    0.02%
Elapsed time = 9.87 sec. (7639.49 ticks, tree = 12.31 MB, solutions = 11)
 143810 43992     4861.0000     7     4862.0000     4861.0000   288967    0.02%
 143811 43993     4861.0000     7     4862.0000     4861.0000   288968    0.02%
 143812 43994     4861.0000     5     4862.0000     4861.0000   288970    0.02%
 143813 43995     4861.0000     7     4862.0000     4861.0000   288972    0.02%
 143814 43996     4861.0000     7     4862.0000     4861.0000   288973    0.02%
 143815 43997     4861.0000     5     4862.0000     4861.0000   288976    0.02%
 143816 43998     4861.0000     5     4862.0000     4861.0000   288978    0.02%
 143817 43999     4861.0000     7     4862.0000     4861.0000   288981    0.02%
 143818 44000     4861.0000     7     4862.0000     4861.0000   288982    0.02%
 143819 43999    infeasible           4862.0000     4861.0000   288982    0.02%
Elapsed time = 11.10 sec. (8593.43 ticks, tree = 12.92 MB, solutions = 11)
 159870 48213     4861.0000     8     4862.0000     4861.0000   322352    0.02%
 159871 48212    infeasible           4862.0000     4861.0000   322354    0.02%
 159872 48211    infeasible           4862.0000     4861.0000   322356    0.02%
 159873 48210    infeasible           4862.0000     4861.0000   322357    0.02%
 159874 48209    infeasible           4862.0000     4861.0000   322358    0.02%
 159875 48208    infeasible           4862.0000     4861.0000   322363    0.02%
 159876 48207    infeasible           4862.0000     4861.0000   322366    0.02%
 159877 48208     4861.0000     6     4862.0000     4861.0000   322367    0.02%
 159878 48207    infeasible           4862.0000     4861.0000   322369    0.02%
*174079     1      integral     0     4861.0000     4861.0000   352626    0.00%

Root node processing (before b&c):
  Real time             =    0.01 sec. (5.68 ticks)
Sequential b&c:
  Real time             =   13.48 sec. (10443.99 ticks)
                          ------------
Total (root+branch&cut) =   13.49 sec. (10449.68 ticks)

Solution pool: 12 solutions saved.

MIP - Integer optimal solution:  Objective =  4.8610000000e+03
Solution time =   13.49 sec.  Iterations = 352626  Nodes = 174080
Deterministic time = 10449.68 ticks  (774.80 ticks/sec)


Incumbent solution written to file '/tmp/tmpiA5cpA.cplex.sol'.
